
Log started (V11.0.0) Sun Apr 20 13:48:29 2008

Tried aggregator 1 time.
Reduced MIP has 530 rows, 15001 columns, and 30030 nonzeros.
Presolve time =    0.09 sec.
Clique table members: 500.
MIP emphasis: balance optimality and feasibility.
MIP search method: dynamic search.
Parallel mode: none, using 1 thread.
Root relaxation solution time =    0.56 sec.

        Nodes                                         Cuts/
   Node  Left     Objective  IInf  Best Integer     Best Node    ItCnt     Gap

*     0+    0                        27013.0000      206.1628      870   99.24%
*     0+    0                          216.0000      206.1628      870    4.55%
      0     0      207.0000    47      216.0000      Fract: 6      878    4.17%
      0     0      207.0000    47      216.0000     Covers: 1      879    4.17%
*     0+    0                          215.0000      207.0000      879    3.72%
      0     0      207.0000    53      215.0000     Covers: 2      908    3.72%
*     0+    0                          214.0000      207.0000      908    3.27%
      0     2      207.0000    53      214.0000      207.0000      908    3.27%
    100    91      209.0000    51      214.0000      207.0000     4411    3.27%
*   200+  140                          211.0000      207.0000    11900    1.90%
    200   141      210.0000    48      211.0000      207.0000    11900    1.90%
    300   214      207.0000    46      211.0000      207.0000    19059    1.90%
    400   308      208.0000    58      211.0000      207.0000    22401    1.90%
    500   368      209.5408    60      211.0000      207.0000    28629    1.90%
*   503+  246                          210.0000      207.0000    30678    1.43%
    600   269      209.0000    43      210.0000      207.0000    35216    1.43%
    700   257      209.0000    57      210.0000      207.0000    48620    1.43%
    800   257      207.0000    59      210.0000      207.0000    54731    1.43%
    900   303      207.0000    56      210.0000      207.0000    61293    1.43%
   1000   387      207.0000    71      210.0000      207.0000    65443    1.43%
Elapsed time =  85.61 sec. (tree size =  4.10 MB, solutions = 6)
   1100   478      208.0000    53      210.0000      207.0000    70024    1.43%
   1200   565      209.0000    44      210.0000      207.0000    75006    1.43%
   1300   639      207.0000    61      210.0000      207.0000    81088    1.43%
   1400   732      208.0000    53      210.0000      207.0000    84687    1.43%
   1500   825      209.0000    45      210.0000      207.0000    88301    1.43%
   1600   915      207.0000    75      210.0000      207.0000    92295    1.43%
*  1603+  606                          209.0000      207.0000    92391    0.96%
   1700   692      207.0000    68      209.0000      207.0000    96101    0.96%
   1800   785      208.0000    52      209.0000      207.0000    99408    0.96%
   1900   853    infeasible            209.0000      207.0000   107868    0.96%
   2000   928      207.0000    70      209.0000      207.0000   113200    0.96%
Elapsed time = 127.00 sec. (tree size = 10.97 MB, solutions = 7)
   2100  1028      207.0000    66      209.0000      207.0000   116927    0.96%
   2200  1121      208.0000    52      209.0000      207.0000   120709    0.96%
   2300  1204      207.0000    73      209.0000      207.0000   126850    0.96%
   2400  1290      208.0000    59      209.0000      207.0000   133556    0.96%
   2500  1382      208.0000    59      209.0000      207.0000   140813    0.96%
   2600  1469      208.0000    58      209.0000      207.0000   145975    0.96%
   2700  1560      208.0000    64      209.0000      207.0000   151429    0.96%
   2800  1652      207.0000    83      209.0000      207.0000   157293    0.96%
   2900  1747      208.0000    60      209.0000      207.0000   161424    0.96%
   3000  1835      207.0000    87      209.0000      207.0000   167470    0.96%
Elapsed time = 182.42 sec. (tree size = 23.30 MB, solutions = 7)
   3100  1926      208.0000    57      209.0000      207.0000   172254    0.96%
   3200  2011      208.0000    54      209.0000      207.0000   179506    0.96%
   3300  2084      208.0000    69      209.0000      207.0000   189323    0.96%
   3400  2184      208.0000    78      209.0000      207.0000   193669    0.96%
   3500  2279      208.0000    70      209.0000      207.0000   198898    0.96%
   3600  2372      208.0000    55      209.0000      207.0000   203402    0.96%
   3700  2456      207.0000    94      209.0000      207.0000   210640    0.96%
   3800  2551      207.0000    69      209.0000      207.0000   216573    0.96%
   3900  2644      207.0000    91      209.0000      207.0000   223079    0.96%
   4000  2738      208.0000    44      209.0000      207.0000   227479    0.96%
Elapsed time = 244.02 sec. (tree size = 38.11 MB, solutions = 7)
   4100  2836      208.0000    73      209.0000      207.0000   232860    0.96%
   4200  2929      208.0000    65      209.0000      207.0000   238950    0.96%
   4300  3014      208.0000    93      209.0000      207.0000   247518    0.96%
   4400  3109      208.0000    68      209.0000      207.0000   253619    0.96%
   4500  3182      208.0000    74      209.0000      207.0000   266167    0.96%
   4600  3274      208.0000    71      209.0000      207.0000   272446    0.96%
   4700  3365      208.0000    87      209.0000      207.0000   280688    0.96%
   4800  3452      208.0000    68      209.0000      207.0000   288357    0.96%
   4900  3548      208.0000    73      209.0000      207.0000   295132    0.96%
   5000  3635      208.0000    95      209.0000      207.0000   301368    0.96%
Elapsed time = 305.33 sec. (tree size = 54.05 MB, solutions = 7)
   5100  3724      208.0000    38      209.0000      207.0000   309578    0.96%
   5200  3820      208.0000    78      209.0000      207.0000   314766    0.96%
   5300  3914      208.0000    56      209.0000      207.0000   322722    0.96%
   5400  3993      208.0000    73      209.0000      207.0000   335050    0.96%
   5500  4087      207.0000   124      209.0000      207.0000   342073    0.96%
   5600  4181      208.0000    95      209.0000      207.0000   348417    0.96%
   5700  4256      208.0000    92      209.0000      207.0000   362214    0.96%
   5800  4356      208.0000    61      209.0000      207.0000   368578    0.96%
   5900  4429      208.0000    72      209.0000      207.0000   386767    0.96%
   6000  4522      208.0000    45      209.0000      207.0000   394971    0.96%
Elapsed time = 382.89 sec. (tree size = 70.48 MB, solutions = 7)
   6100  4611      208.0000    72      209.0000      207.0000   402678    0.96%
   6200  4704      208.0000    63      209.0000      207.0000   410346    0.96%
   6300  4800      208.0000    76      209.0000      207.0000   418660    0.96%
   6400  4874      208.0000    82      209.0000      207.0000   432496    0.96%
   6500  4959      207.0000   139      209.0000      207.0000   441744    0.96%
*  6503+ 1333                          208.0000      207.0000   441953    0.48%
   6600  1418      207.0000    94      208.0000      207.0000   462032    0.48%
   6700  1500      207.0000   153      208.0000      207.0000   479139    0.48%
   6800  1572      207.0000   107      208.0000      207.0000   512459    0.48%
   6900  1656      207.0000   233      208.0000      207.0000   534391    0.48%
   7000  1696    infeasible            208.0000      207.0000   616536    0.48%
Elapsed time = 625.84 sec. (tree size = 25.18 MB, solutions = 8)
   7100  1728      207.0000   198      208.0000      207.0000   726748    0.48%
   7200  1816      207.0000   202      208.0000      207.0000   750396    0.48%
   7300  1772      207.0000   223      208.0000      207.0000  1014317    0.48%
   7400  1820      207.0000   203      208.0000      207.0000  1085981    0.48%
   7500  1906      207.0000   155      208.0000      207.0000  1108676    0.48%
   7600  1982      207.0000   176      208.0000      207.0000  1155460    0.48%
   7700  2044      207.0000   185      208.0000      207.0000  1222155    0.48%
   7800  2128      207.0000   143      208.0000      207.0000  1256873    0.48%
   7900  2064    infeasible            208.0000      207.0000  1569035    0.48%
   8000  1980    infeasible            208.0000      207.0000  1907471    0.48%
Elapsed time = 2173.69 sec. (tree size = 35.83 MB, solutions = 8)
   8100  1890    infeasible            208.0000      207.0000  2254486    0.48%
   8200  1794    infeasible            208.0000      207.0000  2662180    0.48%
   8300  1868      207.0000   136      208.0000      207.0000  2724241    0.48%
   8400  1788    infeasible            208.0000      207.0000  3082637    0.48%
   8500  1724    infeasible            208.0000      207.0000  3416818    0.48%
   8600  1632    infeasible            208.0000      207.0000  3775883    0.48%
   8700  1548    infeasible            208.0000      207.0000  4122965    0.48%
   8800  1564    infeasible            208.0000      207.0000  4278001    0.48%
   8900  1578      207.0000   169      208.0000      207.0000  4448695    0.48%
   9000  1548    infeasible            208.0000      207.0000  4696321    0.48%
Elapsed time = 5606.27 sec. (tree size = 33.13 MB, solutions = 8)
   9100  1518      207.0000   231      208.0000      207.0000  4970442    0.48%
   9200  1558      207.0000   226      208.0000      207.0000  5089385    0.48%
   9300  1586      207.0000   248      208.0000      207.0000  5245855    0.48%
   9400  1540    infeasible            208.0000      207.0000  5547866    0.48%
   9500  1558      207.0000   292      208.0000      207.0000  5727256    0.48%

Cover cuts applied:  1574
Gomory fractional cuts applied:  2

Solution pool: 8 solutions saved.

MIP - Time limit exceeded, integer feasible:  Objective = 2.0800000000e+002
Current MIP best bound = 2.0700000000e+002 (gap = 1, 0.48%)
Solution time = 7200.06 sec.  Iterations = 5826544  Nodes = 9575 (1576)


Incumbent solution
Variable Name           Solution Value
Cmax                        208.000000
X_1_8                         1.000000
X_2_21                        1.000000
X_3_12                        1.000000
X_4_28                        1.000000
X_5_28                        1.000000
X_6_25                        1.000000
X_7_7                         1.000000
X_8_11                        1.000000
X_9_24                        1.000000
X_10_24                       1.000000
X_11_1                        1.000000
X_12_5                        1.000000
X_13_3                        1.000000
X_14_22                       1.000000
X_15_2                        1.000000
X_16_26                       1.000000
X_17_14                       1.000000
X_18_25                       1.000000
X_19_29                       1.000000
X_20_27                       1.000000
X_21_30                       1.000000
X_22_11                       1.000000
X_23_24                       1.000000
X_24_21                       1.000000
X_25_3                        1.000000
X_26_12                       1.000000
X_27_29                       1.000000
X_28_4                        1.000000
X_29_20                       1.000000
X_30_17                       1.000000
X_31_30                       1.000000
X_32_3                        1.000000
X_33_26                       1.000000
X_34_18                       1.000000
X_35_3                        1.000000
X_36_7                        1.000000
X_37_25                       1.000000
X_38_13                       1.000000
X_39_22                       1.000000
X_40_9                        1.000000
X_41_11                       1.000000
X_42_6                        1.000000
X_43_24                       1.000000
X_44_24                       1.000000
X_45_9                        1.000000
X_46_3                        1.000000
X_47_5                        1.000000
X_48_21                       1.000000
X_49_11                       1.000000
X_50_18                       1.000000
X_51_1                        1.000000
X_52_17                       1.000000
X_53_12                       1.000000
X_54_26                       1.000000
X_55_6                        1.000000
X_56_7                        1.000000
X_57_28                       1.000000
X_58_6                        1.000000
X_59_2                        1.000000
X_60_20                       1.000000
X_61_30                       1.000000
X_62_12                       1.000000
X_63_5                        1.000000
X_64_2                        1.000000
X_65_13                       1.000000
X_66_9                        1.000000
X_67_3                        1.000000
X_68_21                       1.000000
X_69_22                       1.000000
X_70_6                        1.000000
X_71_6                        1.000000
X_72_11                       1.000000
X_73_17                       1.000000
X_74_27                       1.000000
X_75_7                        1.000000
X_76_4                        1.000000
X_77_7                        1.000000
X_78_15                       1.000000
X_79_12                       1.000000
X_80_5                        1.000000
X_81_29                       1.000000
X_82_9                        1.000000
X_83_15                       1.000000
X_84_4                        1.000000
X_85_14                       1.000000
X_86_4                        1.000000
X_87_8                        1.000000
X_88_10                       1.000000
X_89_25                       1.000000
X_90_22                       1.000000
X_91_8                        1.000000
X_92_21                       1.000000
X_93_4                        1.000000
X_94_7                        1.000000
X_95_8                        1.000000
X_96_10                       1.000000
X_97_20                       1.000000
X_98_26                       1.000000
X_99_13                       1.000000
X_100_22                      1.000000
X_101_15                      1.000000
X_102_4                       1.000000
X_103_18                      1.000000
X_104_25                      1.000000
X_105_13                      1.000000
X_106_11                      1.000000
X_107_25                      1.000000
X_108_15                      1.000000
X_109_8                       1.000000
X_110_6                       1.000000
X_111_29                      1.000000
X_112_22                      1.000000
X_113_9                       1.000000
X_114_10                      1.000000
X_115_7                       1.000000
X_116_20                      1.000000
X_117_4                       1.000000
X_118_9                       1.000000
X_119_20                      1.000000
X_120_4                       1.000000
X_121_4                       1.000000
X_122_6                       1.000000
X_123_26                      1.000000
X_124_9                       1.000000
X_125_13                      1.000000
X_126_5                       1.000000
X_127_13                      1.000000
X_128_23                      1.000000
X_129_8                       1.000000
X_130_27                      1.000000
X_131_22                      1.000000
X_132_23                      1.000000
X_133_30                      1.000000
X_134_18                      1.000000
X_135_30                      1.000000
X_136_23                      1.000000
X_137_15                      1.000000
X_138_17                      1.000000
X_139_1                       1.000000
X_140_28                      1.000000
X_141_16                      1.000000
X_142_29                      1.000000
X_143_19                      1.000000
X_144_1                       1.000000
X_145_1                       1.000000
X_146_7                       1.000000
X_147_3                       1.000000
X_148_10                      1.000000
X_149_24                      1.000000
X_150_24                      1.000000
X_151_20                      1.000000
X_152_20                      1.000000
X_153_10                      1.000000
X_154_7                       1.000000
X_155_24                      1.000000
X_156_27                      1.000000
X_157_13                      1.000000
X_158_25                      1.000000
X_159_26                      1.000000
X_160_17                      1.000000
X_161_3                       1.000000
X_162_24                      1.000000
X_163_15                      1.000000
X_164_19                      1.000000
X_165_25                      1.000000
X_166_28                      1.000000
X_167_20                      1.000000
X_168_27                      1.000000
X_169_8                       1.000000
X_170_14                      1.000000
X_171_11                      1.000000
X_172_21                      1.000000
X_173_17                      1.000000
X_174_17                      1.000000
X_175_15                      1.000000
X_176_14                      1.000000
X_177_22                      1.000000
X_178_19                      1.000000
X_179_11                      1.000000
X_180_9                       1.000000
X_181_13                      1.000000
X_182_6                       1.000000
X_183_1                       1.000000
X_184_26                      1.000000
X_185_29                      1.000000
X_186_10                      1.000000
X_187_16                      1.000000
X_188_30                      1.000000
X_189_29                      1.000000
X_190_24                      1.000000
X_191_20                      1.000000
X_192_9                       1.000000
X_193_5                       1.000000
X_194_14                      1.000000
X_195_25                      1.000000
X_196_17                      1.000000
X_197_10                      1.000000
X_198_17                      1.000000
X_199_7                       1.000000
X_200_18                      1.000000
X_201_2                       1.000000
X_202_29                      1.000000
X_203_12                      1.000000
X_204_9                       1.000000
X_205_2                       1.000000
X_206_16                      1.000000
X_207_28                      1.000000
X_208_12                      1.000000
X_209_11                      1.000000
X_210_16                      1.000000
X_211_16                      1.000000
X_212_17                      1.000000
X_213_11                      1.000000
X_214_3                       1.000000
X_215_28                      1.000000
X_216_28                      1.000000
X_217_30                      1.000000
X_218_18                      1.000000
X_219_23                      1.000000
X_220_10                      1.000000
X_221_26                      1.000000
X_222_10                      1.000000
X_223_18                      1.000000
X_224_21                      1.000000
X_225_20                      1.000000
X_226_23                      1.000000
X_227_29                      1.000000
X_228_12                      1.000000
X_229_27                      1.000000
X_230_23                      1.000000
X_231_18                      1.000000
X_232_19                      1.000000
X_233_22                      1.000000
X_234_14                      1.000000
X_235_8                       1.000000
X_236_4                       1.000000
X_237_23                      1.000000
X_238_2                       1.000000
X_239_4                       1.000000
X_240_10                      1.000000
X_241_20                      1.000000
X_242_24                      1.000000
X_243_12                      1.000000
X_244_6                       1.000000
X_245_29                      1.000000
X_246_27                      1.000000
X_247_1                       1.000000
X_248_23                      1.000000
X_249_7                       1.000000
X_250_13                      1.000000
X_251_29                      1.000000
X_252_10                      1.000000
X_253_2                       1.000000
X_254_26                      1.000000
X_255_4                       1.000000
X_256_24                      1.000000
X_257_10                      1.000000
X_258_9                       1.000000
X_259_2                       1.000000
X_260_3                       1.000000
X_261_2                       1.000000
X_262_1                       1.000000
X_263_26                      1.000000
X_264_11                      1.000000
X_265_24                      1.000000
X_266_19                      1.000000
X_267_1                       1.000000
X_268_4                       1.000000
X_269_27                      1.000000
X_270_6                       1.000000
X_271_20                      1.000000
X_272_1                       1.000000
X_273_16                      1.000000
X_274_1                       1.000000
X_275_11                      1.000000
X_276_19                      1.000000
X_277_23                      1.000000
X_278_7                       1.000000
X_279_11                      1.000000
X_280_24                      1.000000
X_281_22                      1.000000
X_282_30                      1.000000
X_283_12                      1.000000
X_284_20                      1.000000
X_285_7                       1.000000
X_286_29                      1.000000
X_287_5                       1.000000
X_288_18                      1.000000
X_289_24                      1.000000
X_290_4                       1.000000
X_291_12                      1.000000
X_292_18                      1.000000
X_293_16                      1.000000
X_294_25                      1.000000
X_295_14                      1.000000
X_296_27                      1.000000
X_297_16                      1.000000
X_298_23                      1.000000
X_299_23                      1.000000
X_300_12                      1.000000
X_301_3                       1.000000
X_302_8                       1.000000
X_303_20                      1.000000
X_304_15                      1.000000
X_305_27                      1.000000
X_306_27                      1.000000
X_307_9                       1.000000
X_308_17                      1.000000
X_309_13                      1.000000
X_310_15                      1.000000
X_311_21                      1.000000
X_312_28                      1.000000
X_313_26                      1.000000
X_314_11                      1.000000
X_315_15                      1.000000
X_316_14                      1.000000
X_317_22                      1.000000
X_318_23                      1.000000
X_319_3                       1.000000
X_320_8                       1.000000
X_321_23                      1.000000
X_322_2                       1.000000
X_323_18                      1.000000
X_324_11                      1.000000
X_325_14                      1.000000
X_326_15                      1.000000
X_327_25                      1.000000
X_328_29                      1.000000
X_329_2                       1.000000
X_330_28                      1.000000
X_331_19                      1.000000
X_332_3                       1.000000
X_333_8                       1.000000
X_334_19                      1.000000
X_335_30                      1.000000
X_336_15                      1.000000
X_337_6                       1.000000
X_338_19                      1.000000
X_339_17                      1.000000
X_340_29                      1.000000
X_341_20                      1.000000
X_342_20                      1.000000
X_343_20                      1.000000
X_344_26                      1.000000
X_345_15                      1.000000
X_346_10                      1.000000
X_347_28                      1.000000
X_348_26                      1.000000
X_349_16                      1.000000
X_350_30                      1.000000
X_351_21                      1.000000
X_352_7                       1.000000
X_353_6                       1.000000
X_354_29                      1.000000
X_355_28                      1.000000
X_356_30                      1.000000
X_357_16                      1.000000
X_358_2                       1.000000
X_359_13                      1.000000
X_360_27                      1.000000
X_361_22                      1.000000
X_362_3                       1.000000
X_363_13                      1.000000
X_364_19                      1.000000
X_365_21                      1.000000
X_366_30                      1.000000
X_367_3                       1.000000
X_368_26                      1.000000
X_369_22                      1.000000
X_370_17                      1.000000
X_371_23                      1.000000
X_372_4                       1.000000
X_373_10                      1.000000
X_374_16                      1.000000
X_375_4                       1.000000
X_376_8                       1.000000
X_377_16                      1.000000
X_378_19                      1.000000
X_379_25                      1.000000
X_380_7                       1.000000
X_381_11                      1.000000
X_382_18                      1.000000
X_383_5                       1.000000
X_384_9                       1.000000
X_385_10                      1.000000
X_386_1                       1.000000
X_387_15                      1.000000
X_388_24                      1.000000
X_389_2                       1.000000
X_390_27                      1.000000
X_391_22                      1.000000
X_392_18                      1.000000
X_393_17                      1.000000
X_394_5                       1.000000
X_395_19                      1.000000
X_396_15                      1.000000
X_397_26                      1.000000
X_398_1                       1.000000
X_399_2                       1.000000
X_400_13                      1.000000
X_401_13                      1.000000
X_402_5                       1.000000
X_403_2                       1.000000
X_404_15                      1.000000
X_405_4                       1.000000
X_406_12                      1.000000
X_407_1                       1.000000
X_408_21                      1.000000
X_409_1                       1.000000
X_410_19                      1.000000
X_411_25                      1.000000
X_412_13                      1.000000
X_413_14                      1.000000
X_414_2                       1.000000
X_415_21                      1.000000
X_416_3                       1.000000
X_417_19                      1.000000
X_418_5                       1.000000
X_419_1                       1.000000
X_420_30                      1.000000
X_421_9                       1.000000
X_422_23                      1.000000
X_423_7                       1.000000
X_424_27                      1.000000
X_425_1                       1.000000
X_426_24                      1.000000
X_427_27                      1.000000
X_428_5                       1.000000
X_429_21                      1.000000
X_430_8                       1.000000
X_431_12                      1.000000
X_432_6                       1.000000
X_433_25                      1.000000
X_434_10                      1.000000
X_435_5                       1.000000
X_436_2                       1.000000
X_437_18                      1.000000
X_438_27                      1.000000
X_439_18                      1.000000
X_440_29                      1.000000
X_441_23                      1.000000
X_442_17                      1.000000
X_443_12                      1.000000
X_444_16                      1.000000
X_445_14                      1.000000
X_446_5                       1.000000
X_447_14                      1.000000
X_448_28                      1.000000
X_449_26                      1.000000
X_450_28                      1.000000
X_451_28                      1.000000
X_452_5                       1.000000
X_453_7                       1.000000
X_454_21                      1.000000
X_455_29                      1.000000
X_456_6                       1.000000
X_457_13                      1.000000
X_458_8                       1.000000
X_459_12                      1.000000
X_460_28                      1.000000
X_461_21                      1.000000
X_462_22                      1.000000
X_463_21                      1.000000
X_464_14                      1.000000
X_465_27                      1.000000
X_466_24                      1.000000
X_467_3                       1.000000
X_468_14                      1.000000
X_469_14                      1.000000
X_470_17                      1.000000
X_471_15                      1.000000
X_472_20                      1.000000
X_473_25                      1.000000
X_474_8                       1.000000
X_475_21                      1.000000
X_476_7                       1.000000
X_477_1                       1.000000
X_478_30                      1.000000
X_479_5                       1.000000
X_480_30                      1.000000
X_481_27                      1.000000
X_482_22                      1.000000
X_483_6                       1.000000
X_484_9                       1.000000
X_485_6                       1.000000
X_486_18                      1.000000
X_487_4                       1.000000
X_488_16                      1.000000
X_489_13                      1.000000
X_490_25                      1.000000
X_491_30                      1.000000
X_492_16                      1.000000
X_493_16                      1.000000
X_494_23                      1.000000
X_495_22                      1.000000
X_496_11                      1.000000
X_497_16                      1.000000
X_498_13                      1.000000
X_499_8                       1.000000
X_500_14                      1.000000
All other variables in the range 1-15001 are 0.
